p cnf 206 312
-1 2 3 4 5 14 16 70 71 72 73 74 75 79 80 157 170 171 186 192 -194 -195 -196 -198 -201 -202 -203 -204 -205 -206 0 
-2 1 3 4 5 14 16 70 71 72 73 74 75 79 80 157 170 171 186 192 -194 -195 -196 -198 -201 -202 -203 -204 -205 -206 0 
-3 1 2 4 5 14 16 70 71 72 73 74 75 79 80 157 170 171 186 192 -194 -195 -196 -198 -201 -202 -203 -204 -205 -206 0 
-4 1 2 3 5 14 16 70 71 72 73 74 75 79 80 157 170 171 186 192 -194 -195 -196 -198 -201 -202 -203 -204 -205 -206 0 
-5 1 2 3 4 14 16 70 71 72 73 74 75 79 80 157 170 171 186 192 -194 -195 -196 -198 -201 -202 -203 -204 -205 -206 0 
-6 11 12 39 76 192 -194 -195 -196 -198 -201 -202 -203 -204 -205 -206 0 
-7 41 68 114 128 191 192 -194 -195 -196 -198 -201 -202 -203 -204 -205 -206 0 
-8 118 -9 -10 192 -194 -195 -196 -198 -201 -202 -203 -204 -205 -206 0 
-11 6 12 39 76 -10 192 -194 -195 -196 -198 -201 -202 -203 -204 -205 -206 0 
-12 6 11 39 76 193 -194 -195 -196 -198 -201 -202 -203 -204 -205 -206 0 
-13 15 17 18 19 54 57 85 86 87 88 101 124 130 156 164 167 168 185 188 189 192 -194 -195 -196 -198 -201 -202 -203 -204 -205 -206 0 
-14 1 2 3 4 5 16 70 71 72 73 74 75 79 80 157 170 171 186 192 -194 -195 -196 -198 -201 -202 -203 -204 -205 -206 0 
-15 13 17 18 19 54 57 85 86 87 88 101 124 130 156 164 167 168 185 188 189 192 -194 -195 -196 -198 -201 -202 -203 -204 -205 -206 0 
-16 1 2 3 4 5 14 70 71 72 73 74 75 79 80 157 170 171 186 -9 192 -194 -195 -196 -198 -201 -202 -203 -204 -205 -206 0 
-17 13 15 18 19 54 57 85 86 87 88 101 124 130 156 164 167 168 185 188 189 -10 192 -194 -195 -196 -198 -201 -202 -203 -204 -205 -206 0 
-18 13 15 17 19 54 57 85 86 87 88 101 124 130 156 164 167 168 185 188 189 -9 192 -194 -195 -196 -198 -201 -202 -203 -204 -205 -206 0 
-19 13 15 17 18 54 57 85 86 87 88 101 124 130 156 164 167 168 185 188 189 -10 -20 192 -194 -195 -196 -198 -201 -202 -203 -204 -205 -206 0 
-21 38 66 67 192 -194 -195 -196 -198 -201 -202 -203 -204 -205 -206 0 
-22 32 44 94 -23 28 29 30 34 107 116 122 162 172 178 181 183 192 -194 -195 -196 -198 -201 -202 -203 -204 -205 -206 0 
-24 119 -23 28 29 30 34 107 116 122 162 172 178 181 183 192 -194 -195 -196 -198 -201 -202 -203 -204 -205 -206 0 
-25 51 127 -23 28 29 30 34 107 116 122 162 172 178 181 183 192 -194 -195 -196 -198 -201 -202 -203 -204 -205 -206 0 
-26 62 65 92 95 108 120 133 135 150 160 174 175 176 177 180 -27 136 194 -195 -196 -198 -201 -202 -203 -204 -205 -206 0 
-28 23 29 30 34 107 116 122 162 172 178 181 183 -27 136 194 -195 -196 -198 -201 -202 -203 -204 -205 -206 0 
-29 23 28 30 34 107 116 122 162 172 178 181 183 -27 136 194 -195 -196 -198 -201 -202 -203 -204 -205 -206 0 
-30 23 28 29 34 107 116 122 162 172 178 181 183 -31 35 110 190 -9 192 -194 -195 -196 -198 -201 -202 -203 -204 -205 -206 0 
-32 22 44 94 -9 192 -194 -195 -196 -198 -201 -202 -203 -204 -205 -206 0 
-33 42 52 56 59 61 90 91 97 102 105 -27 136 194 -195 -196 -198 -201 -202 -203 -204 -205 -206 0 
-34 23 28 29 30 107 116 122 162 172 178 181 183 -9 192 -194 -195 -196 -198 -201 -202 -203 -204 -205 -206 0 
-35 31 110 190 -9 192 -194 -195 -196 -198 -201 -202 -203 -204 -205 -206 0 
-32 22 44 94 -36 192 -194 -195 -196 -198 -201 -202 -203 -204 -205 -206 0 
-37 -20 192 -194 -195 -196 -198 -201 -202 -203 -204 -205 -206 0 
-38 21 66 67 -28 23 29 30 34 107 116 122 162 172 178 181 183 192 -194 -195 -196 -198 -201 -202 -203 -204 -205 -206 0 
-39 6 11 12 76 -40 84 106 146 192 -194 -195 -196 -198 -201 -202 -203 -204 -205 -206 0 
-41 7 68 114 128 191 -42 33 52 56 59 61 90 91 97 102 105 -43 194 -195 -196 -198 -201 -202 -203 -204 -205 -206 0 
-44 22 32 94 -45 192 -194 -195 -196 -198 -201 -202 -203 -204 -205 -206 0 
-46 -20 192 -194 -195 -196 -198 -201 -202 -203 -204 -205 -206 0 
-34 23 28 29 30 107 116 122 162 172 178 181 183 192 -194 -195 -196 -198 -201 -202 -203 -204 -205 -206 0 
-47 -48 192 -194 -195 -196 -198 -201 -202 -203 -204 -205 -206 0 
-24 119 -49 -36 192 -194 -195 -196 -198 -201 -202 -203 -204 -205 -206 0 
-50 194 -195 -196 -198 -201 -202 -203 -204 -205 -206 0 
-51 25 127 194 -195 -196 -198 -201 -202 -203 -204 -205 -206 0 
-52 33 42 56 59 61 90 91 97 102 105 -53 -36 194 -195 -196 -198 -201 -202 -203 -204 -205 -206 0 
-39 6 11 12 76 194 -195 -196 -198 -201 -202 -203 -204 -205 -206 0 
-40 84 106 146 -20 192 -194 -195 -196 -198 -201 -202 -203 -204 -205 -206 0 
-54 13 15 17 18 19 57 85 86 87 88 101 124 130 156 164 167 168 185 188 189 -36 194 -195 -196 -198 -201 -202 -203 -204 -205 -206 0 
-55 58 60 63 69 93 103 112 123 141 145 -34 23 28 29 30 107 116 122 162 172 178 181 183 -9 192 -194 -195 -196 -198 -201 -202 -203 -204 -205 -206 0 
-38 21 66 67 -56 33 42 52 59 61 90 91 97 102 105 -51 25 127 192 -194 -195 -196 -198 -201 -202 -203 -204 -205 -206 0 
-28 23 29 30 34 107 116 122 162 172 178 181 183 -36 194 -195 -196 -198 -201 -202 -203 -204 -205 -206 0 
-56 33 42 52 59 61 90 91 97 102 105 -36 194 -195 -196 -198 -201 -202 -203 -204 -205 -206 0 
-57 13 15 17 18 19 54 85 86 87 88 101 124 130 156 164 167 168 185 188 189 -36 194 -195 -196 -198 -201 -202 -203 -204 -205 -206 0 
-29 23 28 30 34 107 116 122 162 172 178 181 183 -36 194 -195 -196 -198 -201 -202 -203 -204 -205 -206 0 
-58 55 60 63 69 93 103 112 123 141 145 -36 194 -195 -196 -198 -201 -202 -203 -204 -205 -206 0 
-41 7 68 114 128 191 -36 194 -195 -196 -198 -201 -202 -203 -204 -205 -206 0 
-34 23 28 29 30 107 116 122 162 172 178 181 183 -48 192 -194 -195 -196 -198 -201 -202 -203 -204 -205 -206 0 
-7 41 68 114 128 191 -30 23 28 29 34 107 116 122 162 172 178 181 183 -48 192 -194 -195 -196 -198 -201 -202 -203 -204 -205 -206 0 
-17 13 15 18 19 54 57 85 86 87 88 101 124 130 156 164 167 168 185 188 189 -36 192 -194 -195 -196 -198 -201 -202 -203 -204 -205 -206 0 
-59 33 42 52 56 61 90 91 97 102 105 -36 194 -195 -196 -198 -201 -202 -203 -204 -205 -206 0 
-60 55 58 63 69 93 103 112 123 141 145 -36 192 -194 -195 -196 -198 -201 -202 -203 -204 -205 -206 0 
-61 33 42 52 56 59 90 91 97 102 105 -36 192 -194 -195 -196 -198 -201 -202 -203 -204 -205 -206 0 
-30 23 28 29 34 107 116 122 162 172 178 181 183 -20 192 -194 -195 -196 -198 -201 -202 -203 -204 -205 -206 0 
-62 26 65 92 95 108 120 133 135 150 160 174 175 176 177 180 -36 192 -194 -195 -196 -198 -201 -202 -203 -204 -205 -206 0 
-54 13 15 17 18 19 57 85 86 87 88 101 124 130 156 164 167 168 185 188 189 -20 194 -195 -196 -198 -201 -202 -203 -204 -205 -206 0 
-29 23 28 30 34 107 116 122 162 172 178 181 183 -20 194 -195 -196 -198 -201 -202 -203 -204 -205 -206 0 
-28 23 29 30 34 107 116 122 162 172 178 181 183 -20 194 -195 -196 -198 -201 -202 -203 -204 -205 -206 0 
-26 62 65 92 95 108 120 133 135 150 160 174 175 176 177 180 -20 194 -195 -196 -198 -201 -202 -203 -204 -205 -206 0 
-56 33 42 52 59 61 90 91 97 102 105 -20 194 -195 -196 -198 -201 -202 -203 -204 -205 -206 0 
-57 13 15 17 18 19 54 85 86 87 88 101 124 130 156 164 167 168 185 188 189 -20 194 -195 -196 -198 -201 -202 -203 -204 -205 -206 0 
-58 55 60 63 69 93 103 112 123 141 145 -20 194 -195 -196 -198 -201 -202 -203 -204 -205 -206 0 
-41 7 68 114 128 191 -20 194 -195 -196 -198 -201 -202 -203 -204 -205 -206 0 
-17 13 15 18 19 54 57 85 86 87 88 101 124 130 156 164 167 168 185 188 189 -20 192 -194 -195 -196 -198 -201 -202 -203 -204 -205 -206 0 
-63 55 58 60 69 93 103 112 123 141 145 -20 194 -195 -196 -198 -201 -202 -203 -204 -205 -206 0 
-59 33 42 52 56 61 90 91 97 102 105 -20 194 -195 -196 -198 -201 -202 -203 -204 -205 -206 0 
-60 55 58 63 69 93 103 112 123 141 145 -20 192 -194 -195 -196 -198 -201 -202 -203 -204 -205 -206 0 
-61 33 42 52 56 59 90 91 97 102 105 -20 192 -194 -195 -196 -198 -201 -202 -203 -204 -205 -206 0 
-62 26 65 92 95 108 120 133 135 150 160 174 175 176 177 180 -20 192 -194 -195 -196 -198 -201 -202 -203 -204 -205 -206 0 
-64 -65 26 62 92 95 108 120 133 135 150 160 174 175 176 177 180 -55 58 60 63 69 93 103 112 123 141 145 -34 23 28 29 30 107 116 122 162 172 178 181 183 -48 192 -194 -195 -196 -198 -201 -202 -203 -204 -205 -206 0 
-11 6 12 39 76 192 -194 -195 -196 -198 -201 -202 -203 -204 -205 -206 0 
-18 13 15 17 19 54 57 85 86 87 88 101 124 130 156 164 167 168 185 188 189 -10 192 -194 -195 -196 -198 -201 -202 -203 -204 -205 -206 0 
-29 23 28 30 34 107 116 122 162 172 178 181 183 194 -195 -196 -198 -201 -202 -203 -204 -205 -206 0 
-66 21 38 67 194 -195 -196 -198 -201 -202 -203 -204 -205 -206 0 
-58 55 60 63 69 93 103 112 123 141 145 194 -195 -196 -198 -201 -202 -203 -204 -205 -206 0 
-67 21 38 66 194 -195 -196 -198 -201 -202 -203 -204 -205 -206 0 
-54 13 15 17 18 19 57 85 86 87 88 101 124 130 156 164 167 168 185 188 189 194 -195 -196 -198 -201 -202 -203 -204 -205 -206 0 
-68 7 41 114 128 191 -69 55 58 60 63 93 103 112 123 141 145 -31 35 110 190 192 -194 -195 -196 -198 -201 -202 -203 -204 -205 -206 0 
-70 1 2 3 4 5 14 16 71 72 73 74 75 79 80 157 170 171 186 192 -194 -195 -196 -198 -201 -202 -203 -204 -205 -206 0 
-71 1 2 3 4 5 14 16 70 72 73 74 75 79 80 157 170 171 186 192 -194 -195 -196 -198 -201 -202 -203 -204 -205 -206 0 
-72 1 2 3 4 5 14 16 70 71 73 74 75 79 80 157 170 171 186 192 -194 -195 -196 -198 -201 -202 -203 -204 -205 -206 0 
-73 1 2 3 4 5 14 16 70 71 72 74 75 79 80 157 170 171 186 192 -194 -195 -196 -198 -201 -202 -203 -204 -205 -206 0 
-74 1 2 3 4 5 14 16 70 71 72 73 75 79 80 157 170 171 186 192 -194 -195 -196 -198 -201 -202 -203 -204 -205 -206 0 
-75 1 2 3 4 5 14 16 70 71 72 73 74 79 80 157 170 171 186 192 -194 -195 -196 -198 -201 -202 -203 -204 -205 -206 0 
-76 6 11 12 39 -10 192 -194 -195 -196 -198 -201 -202 -203 -204 -205 -206 0 
-16 1 2 3 4 5 14 70 71 72 73 74 75 79 80 157 170 171 186 192 -194 -195 -196 -198 -201 -202 -203 -204 -205 -206 0 
-77 192 -194 -195 -196 -198 -201 -202 -203 -204 -205 -206 0 
-78 192 -194 -195 -196 -198 -201 -202 -203 -204 -205 -206 0 
-79 1 2 3 4 5 14 16 70 71 72 73 74 75 80 157 170 171 186 192 -194 -195 -196 -198 -201 -202 -203 -204 -205 -206 0 
-80 1 2 3 4 5 14 16 70 71 72 73 74 75 79 157 170 171 186 192 -194 -195 -196 -198 -201 -202 -203 -204 -205 -206 0 
-44 22 32 94 -81 154 -9 192 -194 -195 -196 -198 -201 -202 -203 -204 -205 -206 0 
-32 22 44 94 -82 83 143 144 152 153 166 169 192 -194 -195 -196 -198 -201 -202 -203 -204 -205 -206 0 
-35 31 110 190 -83 82 143 144 152 153 166 169 192 -194 -195 -196 -198 -201 -202 -203 -204 -205 -206 0 
-84 40 106 146 -9 192 -194 -195 -196 -198 -201 -202 -203 -204 -205 -206 0 
-76 6 11 12 39 -85 13 15 17 18 19 54 57 86 87 88 101 124 130 156 164 167 168 185 188 189 -9 192 -194 -195 -196 -198 -201 -202 -203 -204 -205 -206 0 
-7 41 68 114 128 191 -86 13 15 17 18 19 54 57 85 87 88 101 124 130 156 164 167 168 185 188 189 192 -194 -195 -196 -198 -201 -202 -203 -204 -205 -206 0 
-76 6 11 12 39 -87 13 15 17 18 19 54 57 85 86 88 101 124 130 156 164 167 168 185 188 189 192 -194 -195 -196 -198 -201 -202 -203 -204 -205 -206 0 
-88 13 15 17 18 19 54 57 85 86 87 101 124 130 156 164 167 168 185 188 189 -9 192 -194 -195 -196 -198 -201 -202 -203 -204 -205 -206 0 
-89 125 192 -194 -195 -196 -198 -201 -202 -203 -204 -205 -206 0 
-56 33 42 52 59 61 90 91 97 102 105 194 -195 -196 -198 -201 -202 -203 -204 -205 -206 0 
-60 55 58 63 69 93 103 112 123 141 145 192 -194 -195 -196 -198 -201 -202 -203 -204 -205 -206 0 
-33 42 52 56 59 61 90 91 97 102 105 194 -195 -196 -198 -201 -202 -203 -204 -205 -206 0 
-90 33 42 52 56 59 61 91 97 102 105 194 -195 -196 -198 -201 -202 -203 -204 -205 -206 0 
-91 33 42 52 56 59 61 90 97 102 105 194 -195 -196 -198 -201 -202 -203 -204 -205 -206 0 
-92 26 62 65 95 108 120 133 135 150 160 174 175 176 177 180 194 -195 -196 -198 -201 -202 -203 -204 -205 -206 0 
-59 33 42 52 56 61 90 91 97 102 105 194 -195 -196 -198 -201 -202 -203 -204 -205 -206 0 
-61 33 42 52 56 59 90 91 97 102 105 -10 192 -194 -195 -196 -198 -201 -202 -203 -204 -205 -206 0 
-93 55 58 60 63 69 103 112 123 141 145 192 -194 -195 -196 -198 -201 -202 -203 -204 -205 -206 0 
-94 22 32 44 192 -194 -195 -196 -198 -201 -202 -203 -204 -205 -206 0 
-63 55 58 60 69 93 103 112 123 141 145 194 -195 -196 -198 -201 -202 -203 -204 -205 -206 0 
-40 84 106 146 194 -195 -196 -198 -201 -202 -203 -204 -205 -206 0 
-95 26 62 65 92 108 120 133 135 150 160 174 175 176 177 180 194 -195 -196 -198 -201 -202 -203 -204 -205 -206 0 
-96 109 148 194 -195 -196 -198 -201 -202 -203 -204 -205 -206 0 
-41 7 68 114 128 191 -97 33 42 52 56 59 61 90 91 102 105 -39 6 11 12 76 194 -195 -196 -198 -201 -202 -203 -204 -205 -206 0 
-37 192 -194 -195 -196 -198 -201 -202 -203 -204 -205 -206 0 
-46 192 -194 -195 -196 -198 -201 -202 -203 -204 -205 -206 0 
-76 6 11 12 39 -20 192 -194 -195 -196 -198 -201 -202 -203 -204 -205 -206 0 
-98 194 -195 -196 -198 -201 -202 -203 -204 -205 -206 0 
-99 192 -194 -195 -196 -198 -201 -202 -203 -204 -205 -206 0 
-100 192 -194 -195 -196 -198 -201 -202 -203 -204 -205 -206 0 
-26 62 65 92 95 108 120 133 135 150 160 174 175 176 177 180 194 -195 -196 -198 -201 -202 -203 -204 -205 -206 0 
-54 13 15 17 18 19 57 85 86 87 88 101 124 130 156 164 167 168 185 188 189 192 -194 -195 -196 -198 -201 -202 -203 -204 -205 -206 0 
-28 23 29 30 34 107 116 122 162 172 178 181 183 192 -194 -195 -196 -198 -201 -202 -203 -204 -205 -206 0 
-39 6 11 12 76 192 -194 -195 -196 -198 -201 -202 -203 -204 -205 -206 0 
-29 23 28 30 34 107 116 122 162 172 178 181 183 192 -194 -195 -196 -198 -201 -202 -203 -204 -205 -206 0 
-11 6 12 39 76 -7 41 68 114 128 191 194 -195 -196 -198 -201 -202 -203 -204 -205 -206 0 
-28 23 29 30 34 107 116 122 162 172 178 181 183 194 -195 -196 -198 -201 -202 -203 -204 -205 -206 0 
-101 13 15 17 18 19 54 57 85 86 87 88 124 130 156 164 167 168 185 188 189 194 -195 -196 -198 -201 -202 -203 -204 -205 -206 0 
-102 33 42 52 56 59 61 90 91 97 105 -36 194 -195 -196 -198 -201 -202 -203 -204 -205 -206 0 
-103 55 58 60 63 69 93 112 123 141 145 194 -195 -196 -198 -201 -202 -203 -204 -205 -206 0 
-39 6 11 12 76 -36 194 -195 -196 -198 -201 -202 -203 -204 -205 -206 0 
-55 58 60 63 69 93 103 112 123 141 145 -34 23 28 29 30 107 116 122 162 172 178 181 183 -48 192 -194 -195 -196 -198 -201 -202 -203 -204 -205 -206 0 
-104 158 195 -194 -196 -198 -201 -202 -203 -204 -205 -206 0 
-93 55 58 60 63 69 103 112 123 141 145 -28 23 29 30 34 107 116 122 162 172 178 181 183 -36 194 -195 -196 -198 -201 -202 -203 -204 -205 -206 0 
-103 55 58 60 63 69 93 112 123 141 145 -96 109 148 194 -195 -196 -198 -201 -202 -203 -204 -205 -206 0 
-93 55 58 60 63 69 103 112 123 141 145 -102 33 42 52 56 59 61 90 91 97 105 -36 194 -195 -196 -198 -201 -202 -203 -204 -205 -206 0 
-20 194 -195 -196 -198 -201 -202 -203 -204 -205 -206 0 
-57 13 15 17 18 19 54 85 86 87 88 101 124 130 156 164 167 168 185 188 189 194 -195 -196 -198 -201 -202 -203 -204 -205 -206 0 
-105 33 42 52 56 59 61 90 91 97 102 194 -195 -196 -198 -201 -202 -203 -204 -205 -206 0 
-62 26 65 92 95 108 120 133 135 150 160 174 175 176 177 180 192 -194 -195 -196 -198 -201 -202 -203 -204 -205 -206 0 
-106 40 84 146 -107 23 28 29 30 34 116 122 162 172 178 181 183 192 -194 -195 -196 -198 -201 -202 -203 -204 -205 -206 0 
-63 55 58 60 69 93 103 112 123 141 145 -36 194 -195 -196 -198 -201 -202 -203 -204 -205 -206 0 
-51 25 127 -20 192 -194 -195 -196 -198 -201 -202 -203 -204 -205 -206 0 
-104 158 -108 26 62 65 92 95 120 133 135 150 160 174 175 176 177 180 -109 96 148 196 -194 -195 -198 -201 -202 -203 -204 -205 -206 0 
-11 6 12 39 76 -104 158 -34 23 28 29 30 107 116 122 162 172 178 181 183 192 -194 -195 -196 -198 -201 -202 -203 -204 -205 -206 0 
-104 158 -34 23 28 29 30 107 116 122 162 172 178 181 183 -110 31 35 190 192 -194 -195 -196 -198 -201 -202 -203 -204 -205 -206 0 
-104 158 -111 192 -194 -195 -196 -198 -201 -202 -203 -204 -205 -206 0 
-104 158 -112 55 58 60 63 69 93 103 123 141 145 -109 96 148 196 -194 -195 -198 -201 -202 -203 -204 -205 -206 0 
-113 132 197 -200 0 
-114 7 41 68 128 191 193 -194 -195 -196 -198 -201 -202 -203 -204 -205 -206 0 
-115 193 -194 -195 -196 -198 -201 -202 -203 -204 -205 -206 0 
-116 23 28 29 30 34 107 122 162 172 178 181 183 -117 182 197 -200 0 
-118 8 -104 158 -76 6 11 12 39 192 -194 -195 -196 -198 -201 -202 -203 -204 -205 -206 0 
-119 24 193 -194 -195 -196 -198 -201 -202 -203 -204 -205 -206 0 
-104 158 -120 26 62 65 92 95 108 133 135 150 160 174 175 176 177 180 -121 198 -194 -195 -196 -201 -202 -203 -204 -205 -206 0 
-40 84 106 146 -51 25 127 -20 194 -195 -196 -198 -201 -202 -203 -204 -205 -206 0 
-122 23 28 29 30 34 107 116 162 172 178 181 183 194 -195 -196 -198 -201 -202 -203 -204 -205 -206 0 
-123 55 58 60 63 69 93 103 112 141 145 194 -195 -196 -198 -201 -202 -203 -204 -205 -206 0 
-124 13 15 17 18 19 54 57 85 86 87 88 101 130 156 164 167 168 185 188 189 194 -195 -196 -198 -201 -202 -203 -204 -205 -206 0 
-40 84 106 146 -125 89 194 -195 -196 -198 -201 -202 -203 -204 -205 -206 0 
-52 33 42 56 59 61 90 91 97 102 105 -126 194 -195 -196 -198 -201 -202 -203 -204 -205 -206 0 
-127 25 51 -128 7 41 68 114 191 -76 6 11 12 39 -20 192 -194 -195 -196 -198 -201 -202 -203 -204 -205 -206 0 
-30 23 28 29 34 107 116 122 162 172 178 181 183 -129 192 -194 -195 -196 -198 -201 -202 -203 -204 -205 -206 0 
-40 84 106 146 -56 33 42 52 59 61 90 91 97 102 105 194 -195 -196 -198 -201 -202 -203 -204 -205 -206 0 
-51 25 127 -20 194 -195 -196 -198 -201 -202 -203 -204 -205 -206 0 
-9 -10 199 200 0 
-48 192 -194 -195 -196 -198 -201 -202 -203 -204 -205 -206 0 
-130 13 15 17 18 19 54 57 85 86 87 88 101 124 156 164 167 168 185 188 189 -32 22 44 94 192 -194 -195 -196 -198 -201 -202 -203 -204 -205 -206 0 
-104 158 -131 140 184 192 -194 -195 -196 -198 -201 -202 -203 -204 -205 -206 0 
-132 113 192 -194 -195 -196 -198 -201 -202 -203 -204 -205 -206 0 
-24 119 -133 26 62 65 92 95 108 120 135 150 160 174 175 176 177 180 201 -194 -195 -196 -198 -202 -203 -204 -205 -206 0 
-134 192 -194 -195 -196 -198 -201 -202 -203 -204 -205 -206 0 
-98 -133 26 62 65 92 95 108 120 135 150 160 174 175 176 177 180 201 -194 -195 -196 -198 -202 -203 -204 -205 -206 0 
-132 113 -133 26 62 65 92 95 108 120 135 150 160 174 175 176 177 180 201 -194 -195 -196 -198 -202 -203 -204 -205 -206 0 
-35 31 110 190 192 -194 -195 -196 -198 -201 -202 -203 -204 -205 -206 0 
-98 -135 26 62 65 92 95 108 120 133 150 160 174 175 176 177 180 -85 13 15 17 18 19 54 57 86 87 88 101 124 130 156 164 167 168 185 188 189 202 -194 -195 -196 -198 -201 -203 -204 -205 -206 0 
-19 13 15 17 18 54 57 85 86 87 88 101 124 130 156 164 167 168 185 188 189 -20 192 -194 -195 -196 -198 -201 -202 -203 -204 -205 -206 0 
-104 158 -35 31 110 190 192 -194 -195 -196 -198 -201 -202 -203 -204 -205 -206 0 
-57 13 15 17 18 19 54 85 86 87 88 101 124 130 156 164 167 168 185 188 189 -27 136 194 -195 -196 -198 -201 -202 -203 -204 -205 -206 0 
-28 23 29 30 34 107 116 122 162 172 178 181 183 -136 27 194 -195 -196 -198 -201 -202 -203 -204 -205 -206 0 
-137 -48 -138 194 -195 -196 -198 -201 -202 -203 -204 -205 -206 0 
-44 22 32 94 -9 192 -194 -195 -196 -198 -201 -202 -203 -204 -205 -206 0 
-30 23 28 29 34 107 116 122 162 172 178 181 183 -9 -10 -20 192 -194 -195 -196 -198 -201 -202 -203 -204 -205 -206 0 
-31 35 110 190 -139 -27 136 192 -194 -195 -196 -198 -201 -202 -203 -204 -205 -206 0 
-44 22 32 94 -9 -10 192 -194 -195 -196 -198 -201 -202 -203 -204 -205 -206 0 
-140 131 184 -27 136 195 -194 -196 -198 -201 -202 -203 -204 -205 -206 0 
-29 23 28 30 34 107 116 122 162 172 178 181 183 -136 27 194 -195 -196 -198 -201 -202 -203 -204 -205 -206 0 
-34 23 28 29 30 107 116 122 162 172 178 181 183 -48 -9 192 -194 -195 -196 -198 -201 -202 -203 -204 -205 -206 0 
-30 23 28 29 34 107 116 122 162 172 178 181 183 -31 35 110 190 -81 154 -9 192 -194 -195 -196 -198 -201 -202 -203 -204 -205 -206 0 
-141 55 58 60 63 69 93 103 112 123 145 -37 -9 192 -194 -195 -196 -198 -201 -202 -203 -204 -205 -206 0 
-37 -10 -20 192 -194 -195 -196 -198 -201 -202 -203 -204 -205 -206 0 
-31 35 110 190 -139 -9 -10 192 -194 -195 -196 -198 -201 -202 -203 -204 -205 -206 0 
-126 -48 -27 136 -10 194 -195 -196 -198 -201 -202 -203 -204 -205 -206 0 
-128 7 41 68 114 191 -27 136 -9 192 -194 -195 -196 -198 -201 -202 -203 -204 -205 -206 0 
-142 -27 136 -10 195 -194 -196 -198 -201 -202 -203 -204 -205 -206 0 
-30 23 28 29 34 107 116 122 162 172 178 181 183 -143 82 83 144 152 153 166 169 192 -194 -195 -196 -198 -201 -202 -203 -204 -205 -206 0 
-35 31 110 190 -144 82 83 143 152 153 166 169 192 -194 -195 -196 -198 -201 -202 -203 -204 -205 -206 0 
-34 23 28 29 30 107 116 122 162 172 178 181 183 -143 82 83 144 152 153 166 169 192 -194 -195 -196 -198 -201 -202 -203 -204 -205 -206 0 
-11 6 12 39 76 194 -195 -196 -198 -201 -202 -203 -204 -205 -206 0 
-58 55 60 63 69 93 103 112 123 141 145 192 -194 -195 -196 -198 -201 -202 -203 -204 -205 -206 0 
-52 33 42 56 59 61 90 91 97 102 105 194 -195 -196 -198 -201 -202 -203 -204 -205 -206 0 
-52 33 42 56 59 61 90 91 97 102 105 192 -194 -195 -196 -198 -201 -202 -203 -204 -205 -206 0 
-145 55 58 60 63 69 93 103 112 123 141 201 -194 -195 -196 -198 -202 -203 -204 -205 -206 0 
-146 40 84 106 -48 201 -194 -195 -196 -198 -202 -203 -204 -205 -206 0 
-147 194 -195 -196 -198 -201 -202 -203 -204 -205 -206 0 
-148 96 109 194 -195 -196 -198 -201 -202 -203 -204 -205 -206 0 
-149 192 -194 -195 -196 -198 -201 -202 -203 -204 -205 -206 0 
-41 7 68 114 128 191 194 -195 -196 -198 -201 -202 -203 -204 -205 -206 0 
-58 55 60 63 69 93 103 112 123 141 145 -20 192 -194 -195 -196 -198 -201 -202 -203 -204 -205 -206 0 
-29 23 28 30 34 107 116 122 162 172 178 181 183 -20 192 -194 -195 -196 -198 -201 -202 -203 -204 -205 -206 0 
-150 26 62 65 92 95 108 120 133 135 160 174 175 176 177 180 192 -194 -195 -196 -198 -201 -202 -203 -204 -205 -206 0 
-128 7 41 68 114 191 -36 192 -194 -195 -196 -198 -201 -202 -203 -204 -205 -206 0 
-128 7 41 68 114 191 -76 6 11 12 39 -36 192 -194 -195 -196 -198 -201 -202 -203 -204 -205 -206 0 
-131 140 184 192 -194 -195 -196 -198 -201 -202 -203 -204 -205 -206 0 
-76 6 11 12 39 -36 192 -194 -195 -196 -198 -201 -202 -203 -204 -205 -206 0 
-151 194 -195 -196 -198 -201 -202 -203 -204 -205 -206 0 
-64 192 -194 -195 -196 -198 -201 -202 -203 -204 -205 -206 0 
-104 158 203 -194 -195 -196 -198 -201 -202 -204 -205 -206 0 
-53 -27 136 -20 194 -195 -196 -198 -201 -202 -203 -204 -205 -206 0 
-31 35 110 190 -139 -81 154 -9 192 -194 -195 -196 -198 -201 -202 -203 -204 -205 -206 0 
-28 23 29 30 34 107 116 122 162 172 178 181 183 -81 154 194 -195 -196 -198 -201 -202 -203 -204 -205 -206 0 
-137 -48 -81 154 194 -195 -196 -198 -201 -202 -203 -204 -205 -206 0 
-44 22 32 94 -82 83 143 144 152 153 166 169 192 -194 -195 -196 -198 -201 -202 -203 -204 -205 -206 0 
-32 22 44 94 -152 82 83 143 144 153 166 169 192 -194 -195 -196 -198 -201 -202 -203 -204 -205 -206 0 
-31 35 110 190 -139 -81 154 192 -194 -195 -196 -198 -201 -202 -203 -204 -205 -206 0 
-32 22 44 94 -152 82 83 143 144 153 166 169 192 -194 -195 -196 -198 -201 -202 -203 -204 -205 -206 0 
-44 22 32 94 -153 82 83 143 144 152 166 169 192 -194 -195 -196 -198 -201 -202 -203 -204 -205 -206 0 
-140 131 184 -81 154 195 -194 -196 -198 -201 -202 -203 -204 -205 -206 0 
-29 23 28 30 34 107 116 122 162 172 178 181 183 -81 154 194 -195 -196 -198 -201 -202 -203 -204 -205 -206 0 
-81 154 -10 192 -194 -195 -196 -198 -201 -202 -203 -204 -205 -206 0 
-34 23 28 29 30 107 116 122 162 172 178 181 183 -48 -81 154 192 -194 -195 -196 -198 -201 -202 -203 -204 -205 -206 0 
-19 13 15 17 18 54 57 85 86 87 88 101 124 130 156 164 167 168 185 188 189 -154 81 192 -194 -195 -196 -198 -201 -202 -203 -204 -205 -206 0 
-35 31 110 190 -81 154 192 -194 -195 -196 -198 -201 -202 -203 -204 -205 -206 0 
-53 -27 136 -10 194 -195 -196 -198 -201 -202 -203 -204 -205 -206 0 
-53 -155 194 -195 -196 -198 -201 -202 -203 -204 -205 -206 0 
-53 -36 -20 194 -195 -196 -198 -201 -202 -203 -204 -205 -206 0 
-52 33 42 56 59 61 90 91 97 102 105 -126 -10 194 -195 -196 -198 -201 -202 -203 -204 -205 -206 0 
-53 -10 194 -195 -196 -198 -201 -202 -203 -204 -205 -206 0 
-8 118 192 -194 -195 -196 -198 -201 -202 -203 -204 -205 -206 0 
-156 13 15 17 18 19 54 57 85 86 87 88 101 124 130 164 167 168 185 188 189 192 -194 -195 -196 -198 -201 -202 -203 -204 -205 -206 0 
-157 1 2 3 4 5 14 16 70 71 72 73 74 75 79 80 170 171 186 192 -194 -195 -196 -198 -201 -202 -203 -204 -205 -206 0 
-38 21 66 67 -41 7 68 114 128 191 192 -194 -195 -196 -198 -201 -202 -203 -204 -205 -206 0 
-64 -158 104 -159 192 -194 -195 -196 -198 -201 -202 -203 -204 -205 -206 0 
-137 -51 25 127 -54 13 15 17 18 19 57 85 86 87 88 101 124 130 156 164 167 168 185 188 189 192 -194 -195 -196 -198 -201 -202 -203 -204 -205 -206 0 
-158 104 -51 25 127 192 -194 -195 -196 -198 -201 -202 -203 -204 -205 -206 0 
-160 26 62 65 92 95 108 120 133 135 150 174 175 176 177 180 204 -194 -195 -196 -198 -201 -202 -203 -205 -206 0 
-161 192 -194 -195 -196 -198 -201 -202 -203 -204 -205 -206 0 
-162 23 28 29 30 34 107 116 122 172 178 181 183 205 -194 -195 -196 -198 -201 -202 -203 -204 -206 0 
-51 25 127 -29 23 28 30 34 107 116 122 162 172 178 181 183 192 -194 -195 -196 -198 -201 -202 -203 -204 -205 -206 0 
-163 195 -194 -196 -198 -201 -202 -203 -204 -205 -206 0 
-164 13 15 17 18 19 54 57 85 86 87 88 101 124 130 156 167 168 185 188 189 204 -194 -195 -196 -198 -201 -202 -203 -205 -206 0 
-165 192 -194 -195 -196 -198 -201 -202 -203 -204 -205 -206 0 
-30 23 28 29 34 107 116 122 162 172 178 181 183 205 -194 -195 -196 -198 -201 -202 -203 -204 -206 0 
-35 31 110 190 -166 82 83 143 144 152 153 169 192 -194 -195 -196 -198 -201 -202 -203 -204 -205 -206 0 
-44 22 32 94 -82 83 143 144 152 153 166 169 192 -194 -195 -196 -198 -201 -202 -203 -204 -205 -206 0 
-32 22 44 94 -81 154 192 -194 -195 -196 -198 -201 -202 -203 -204 -205 -206 0 
-30 23 28 29 34 107 116 122 162 172 178 181 183 -81 154 -9 192 -194 -195 -196 -198 -201 -202 -203 -204 -205 -206 0 
-32 22 44 94 -81 154 -9 192 -194 -195 -196 -198 -201 -202 -203 -204 -205 -206 0 
-4 1 2 3 5 14 16 70 71 72 73 74 75 79 80 157 170 171 186 -9 192 -194 -195 -196 -198 -201 -202 -203 -204 -205 -206 0 
-167 13 15 17 18 19 54 57 85 86 87 88 101 124 130 156 164 168 185 188 189 192 -194 -195 -196 -198 -201 -202 -203 -204 -205 -206 0 
-168 13 15 17 18 19 54 57 85 86 87 88 101 124 130 156 164 167 185 188 189 192 -194 -195 -196 -198 -201 -202 -203 -204 -205 -206 0 
-26 62 65 92 95 108 120 133 135 150 160 174 175 176 177 180 -81 154 194 -195 -196 -198 -201 -202 -203 -204 -205 -206 0 
-33 42 52 56 59 61 90 91 97 102 105 -81 154 194 -195 -196 -198 -201 -202 -203 -204 -205 -206 0 
-35 31 110 190 -169 82 83 143 144 152 153 166 192 -194 -195 -196 -198 -201 -202 -203 -204 -205 -206 0 
-84 40 106 146 -81 154 192 -194 -195 -196 -198 -201 -202 -203 -204 -205 -206 0 
-57 13 15 17 18 19 54 85 86 87 88 101 124 130 156 164 167 168 185 188 189 -81 154 194 -195 -196 -198 -201 -202 -203 -204 -205 -206 0 
-170 1 2 3 4 5 14 16 70 71 72 73 74 75 79 80 157 171 186 -9 192 -194 -195 -196 -198 -201 -202 -203 -204 -205 -206 0 
-39 6 11 12 76 -9 192 -194 -195 -196 -198 -201 -202 -203 -204 -205 -206 0 
-171 1 2 3 4 5 14 16 70 71 72 73 74 75 79 80 157 170 186 192 -194 -195 -196 -198 -201 -202 -203 -204 -205 -206 0 
-49 193 -194 -195 -196 -198 -201 -202 -203 -204 -205 -206 0 
-76 6 11 12 39 -172 23 28 29 30 34 107 116 122 162 178 181 183 202 -194 -195 -196 -198 -201 -203 -204 -205 -206 0 
-98 -173 -46 192 -194 -195 -196 -198 -201 -202 -203 -204 -205 -206 0 
-24 119 -174 26 62 65 92 95 108 120 133 135 150 160 175 176 177 180 192 -194 -195 -196 -198 -201 -202 -203 -204 -205 -206 0 
-140 131 184 -128 7 41 68 114 191 192 -194 -195 -196 -198 -201 -202 -203 -204 -205 -206 0 
-175 26 62 65 92 95 108 120 133 135 150 160 174 176 177 180 206 -194 -195 -196 -198 -201 -202 -203 -204 -205 0 
-176 26 62 65 92 95 108 120 133 135 150 160 174 175 177 180 196 -194 -195 -198 -201 -202 -203 -204 -205 -206 0 
-108 26 62 65 92 95 120 133 135 150 160 174 175 176 177 180 196 -194 -195 -198 -201 -202 -203 -204 -205 -206 0 
-177 26 62 65 92 95 108 120 133 135 150 160 174 175 176 180 196 -194 -195 -198 -201 -202 -203 -204 -205 -206 0 
-118 8 -131 140 184 192 -194 -195 -196 -198 -201 -202 -203 -204 -205 -206 0 
-178 23 28 29 30 34 107 116 122 162 172 181 183 194 -195 -196 -198 -201 -202 -203 -204 -205 -206 0 
-179 -180 26 62 65 92 95 108 120 133 135 150 160 174 175 176 177 192 -194 -195 -196 -198 -201 -202 -203 -204 -205 -206 0 
-179 -181 23 28 29 30 34 107 116 122 162 172 178 183 192 -194 -195 -196 -198 -201 -202 -203 -204 -205 -206 0 
-182 117 192 -194 -195 -196 -198 -201 -202 -203 -204 -205 -206 0 
-76 6 11 12 39 -174 26 62 65 92 95 108 120 133 135 150 160 175 176 177 180 202 -194 -195 -196 -198 -201 -203 -204 -205 -206 0 
-172 23 28 29 30 34 107 116 122 162 178 181 183 -76 6 11 12 39 192 -194 -195 -196 -198 -201 -202 -203 -204 -205 -206 0 
-118 8 -140 131 184 -172 23 28 29 30 34 107 116 122 162 178 181 183 -24 119 192 -194 -195 -196 -198 -201 -202 -203 -204 -205 -206 0 
-76 6 11 12 39 -183 23 28 29 30 34 107 116 122 162 172 178 181 192 -194 -195 -196 -198 -201 -202 -203 -204 -205 -206 0 
-184 131 140 193 -194 -195 -196 -198 -201 -202 -203 -204 -205 -206 0 
-24 119 -107 23 28 29 30 34 116 122 162 172 178 181 183 192 -194 -195 -196 -198 -201 -202 -203 -204 -205 -206 0 
-98 -185 13 15 17 18 19 54 57 85 86 87 88 101 124 130 156 164 167 168 188 189 202 -194 -195 -196 -198 -201 -203 -204 -205 -206 0 
-142 -81 154 -10 195 -194 -196 -198 -201 -202 -203 -204 -205 -206 0 
-186 1 2 3 4 5 14 16 70 71 72 73 74 75 79 80 157 170 171 -9 192 -194 -195 -196 -198 -201 -202 -203 -204 -205 -206 0 
-41 7 68 114 128 191 -9 192 -194 -195 -196 -198 -201 -202 -203 -204 -205 -206 0 
-171 1 2 3 4 5 14 16 70 71 72 73 74 75 79 80 157 170 186 -9 192 -194 -195 -196 -198 -201 -202 -203 -204 -205 -206 0 
-1 2 3 4 5 14 16 70 71 72 73 74 75 79 80 157 170 171 186 -9 192 -194 -195 -196 -198 -201 -202 -203 -204 -205 -206 0 
-186 1 2 3 4 5 14 16 70 71 72 73 74 75 79 80 157 170 171 -9 -10 192 -194 -195 -196 -198 -201 -202 -203 -204 -205 -206 0 
-75 1 2 3 4 5 14 16 70 71 72 73 74 79 80 157 170 171 186 -9 192 -194 -195 -196 -198 -201 -202 -203 -204 -205 -206 0 
-7 41 68 114 128 191 -187 -9 192 -194 -195 -196 -198 -201 -202 -203 -204 -205 -206 0 
-188 13 15 17 18 19 54 57 85 86 87 88 101 124 130 156 164 167 168 185 189 192 -194 -195 -196 -198 -201 -202 -203 -204 -205 -206 0 
-189 13 15 17 18 19 54 57 85 86 87 88 101 124 130 156 164 167 168 185 188 192 -194 -195 -196 -198 -201 -202 -203 -204 -205 -206 0 
-190 31 35 110 -9 192 -194 -195 -196 -198 -201 -202 -203 -204 -205 -206 0 
-107 23 28 29 30 34 116 122 162 172 178 181 183 -36 192 -194 -195 -196 -198 -201 -202 -203 -204 -205 -206 0 
-53 -81 154 -10 194 -195 -196 -198 -201 -202 -203 -204 -205 -206 0 
-126 -48 -27 136 -10 -20 194 -195 -196 -198 -201 -202 -203 -204 -205 -206 0 
-187 -191 7 41 68 114 128 -9 -10 192 -194 -195 -196 -198 -201 -202 -203 -204 -205 -206 0 
-187 -191 7 41 68 114 128 -10 192 -194 -195 -196 -198 -201 -202 -203 -204 -205 -206 0 
